p cnf 626 1939
-3 4 51 0
3 4 -51 0
-3 -4 -51 0
3 -4 51 0
-5 6 52 0
5 6 -52 0
-5 -6 -52 0
5 -6 52 0
-8 9 53 0
8 9 -53 0
-8 -9 -53 0
8 -9 53 0
10 12 54 0
-10 12 -54 0
10 -12 -54 0
-10 -12 54 0
-15 16 55 0
15 16 -55 0
-15 -16 -55 0
15 -16 55 0
-17 25 56 0
17 25 -56 0
-17 -25 -56 0
17 -25 56 0
26 -30 57 0
-26 -30 -57 0
26 30 -57 0
-26 30 57 0
-32 -33 58 0
32 -33 -58 0
-32 33 -58 0
32 33 58 0
34 36 59 0
-34 36 -59 0
34 -36 -59 0
-34 -36 59 0
-38 -39 60 0
38 -39 -60 0
-38 39 -60 0
38 39 60 0
42 -44 61 0
-42 -44 -61 0
42 44 -61 0
-42 44 61 0
45 -47 62 0
-45 -47 -62 0
45 47 -62 0
-45 47 62 0
48 50 63 0
-48 50 -63 0
48 -50 -63 0
-48 -50 63 0
51 -52 64 0
-51 -52 -64 0
51 52 -64 0
-51 52 64 0
53 -54 65 0
-53 -54 -65 0
53 54 -65 0
-53 54 65 0
55 -56 66 0
-55 -56 -66 0
55 56 -66 0
-55 56 66 0
57 -58 67 0
-57 -58 -67 0
57 58 -67 0
-57 58 67 0
59 -60 68 0
-59 -60 -68 0
59 60 -68 0
-59 60 68 0
61 -62 69 0
-61 -62 -69 0
61 62 -69 0
-61 62 69 0
63 -64 70 0
-63 -64 -70 0
63 64 -70 0
-63 64 70 0
65 -66 71 0
-65 -66 -71 0
65 66 -71 0
-65 66 71 0
67 -68 72 0
-67 -68 -72 0
67 68 -72 0
-67 68 72 0
69 -70 73 0
-69 -70 -73 0
69 70 -73 0
-69 70 73 0
71 -72 74 0
-71 -72 -74 0
71 72 -74 0
-71 72 74 0
73 74 0
-73 -74 0
-2 3 75 0
2 3 -75 0
-2 -3 -75 0
2 -3 75 0
-6 8 76 0
6 8 -76 0
-6 -8 -76 0
6 -8 76 0
-11 12 77 0
11 12 -77 0
-11 -12 -77 0
11 -12 77 0
13 -16 78 0
-13 -16 -78 0
13 16 -78 0
-13 16 78 0
-19 -21 79 0
19 -21 -79 0
-19 21 -79 0
19 21 79 0
-29 30 80 0
29 30 -80 0
-29 -30 -80 0
29 -30 80 0
34 36 81 0
-34 36 -81 0
34 -36 -81 0
-34 -36 81 0
38 39 82 0
-38 39 -82 0
38 -39 -82 0
-38 -39 82 0
42 43 83 0
-42 43 -83 0
42 -43 -83 0
-42 -43 83 0
48 49 84 0
-48 49 -84 0
48 -49 -84 0
-48 -49 84 0
75 -76 85 0
-75 -76 -85 0
75 76 -85 0
-75 76 85 0
77 -78 86 0
-77 -78 -86 0
77 78 -86 0
-77 78 86 0
79 -80 87 0
-79 -80 -87 0
79 80 -87 0
-79 80 87 0
81 -82 88 0
-81 -82 -88 0
81 82 -88 0
-81 82 88 0
83 -84 89 0
-83 -84 -89 0
83 84 -89 0
-83 84 89 0
85 -86 90 0
-85 -86 -90 0
85 86 -90 0
-85 86 90 0
87 -88 91 0
-87 -88 -91 0
87 88 -91 0
-87 88 91 0
-89 -90 91 0
89 -90 -91 0
-89 90 -91 0
89 90 91 0
1 2 92 0
-1 2 -92 0
1 -2 -92 0
-1 -2 92 0
-3 -4 93 0
3 -4 -93 0
-3 4 -93 0
3 4 93 0
-5 7 94 0
5 7 -94 0
-5 -7 -94 0
5 -7 94 0
-16 22 95 0
16 22 -95 0
-16 -22 -95 0
16 -22 95 0
-23 -25 96 0
23 -25 -96 0
-23 25 -96 0
23 25 96 0
28 32 97 0
-28 32 -97 0
28 -32 -97 0
-28 -32 97 0
-34 -36 98 0
34 -36 -98 0
-34 36 -98 0
34 36 98 0
40 42 99 0
-40 42 -99 0
40 -42 -99 0
-40 -42 99 0
45 48 100 0
-45 48 -100 0
45 -48 -100 0
-45 -48 100 0
91 -92 101 0
-91 -92 -101 0
91 92 -101 0
-91 92 101 0
93 -94 102 0
-93 -94 -102 0
93 94 -102 0
-93 94 102 0
95 -96 103 0
-95 -96 -103 0
95 96 -103 0
-95 96 103 0
97 -98 104 0
-97 -98 -104 0
97 98 -104 0
-97 98 104 0
99 -100 105 0
-99 -100 -105 0
99 100 -105 0
-99 100 105 0
101 -102 106 0
-101 -102 -106 0
101 102 -106 0
-101 102 106 0
103 -104 107 0
-103 -104 -107 0
103 104 -107 0
-103 104 107 0
-105 -106 107 0
105 -106 -107 0
-105 106 -107 0
105 106 107 0
-1 -4 108 0
1 -4 -108 0
-1 4 -108 0
1 4 108 0
5 6 109 0
-5 6 -109 0
5 -6 -109 0
-5 -6 109 0
-8 10 110 0
8 10 -110 0
-8 -10 -110 0
8 -10 110 0
12 14 111 0
-12 14 -111 0
12 -14 -111 0
-12 -14 111 0
15 -17 112 0
-15 -17 -112 0
15 17 -112 0
-15 17 112 0
-18 19 113 0
18 19 -113 0
-18 -19 -113 0
18 -19 113 0
-23 26 114 0
23 26 -114 0
-23 -26 -114 0
23 -26 114 0
-28 31 115 0
28 31 -115 0
-28 -31 -115 0
28 -31 115 0
-32 33 116 0
32 33 -116 0
-32 -33 -116 0
32 -33 116 0
34 -36 117 0
-34 -36 -117 0
34 36 -117 0
-34 36 117 0
-37 39 118 0
37 39 -118 0
-37 -39 -118 0
37 -39 118 0
40 47 119 0
-40 47 -119 0
40 -47 -119 0
-40 -47 119 0
-48 -49 120 0
48 -49 -120 0
-48 49 -120 0
48 49 120 0
108 -109 121 0
-108 -109 -121 0
108 109 -121 0
-108 109 121 0
110 -111 122 0
-110 -111 -122 0
110 111 -122 0
-110 111 122 0
112 -113 123 0
-112 -113 -123 0
112 113 -123 0
-112 113 123 0
114 -115 124 0
-114 -115 -124 0
114 115 -124 0
-114 115 124 0
116 -117 125 0
-116 -117 -125 0
116 117 -125 0
-116 117 125 0
118 -119 126 0
-118 -119 -126 0
118 119 -126 0
-118 119 126 0
120 -121 127 0
-120 -121 -127 0
120 121 -127 0
-120 121 127 0
122 -123 128 0
-122 -123 -128 0
122 123 -128 0
-122 123 128 0
124 -125 129 0
-124 -125 -129 0
124 125 -129 0
-124 125 129 0
126 -127 130 0
-126 -127 -130 0
126 127 -130 0
-126 127 130 0
128 -129 131 0
-128 -129 -131 0
128 129 -131 0
-128 129 131 0
130 131 0
-130 -131 0
1 -2 132 0
-1 -2 -132 0
1 2 -132 0
-1 2 132 0
3 -7 133 0
-3 -7 -133 0
3 7 -133 0
-3 7 133 0
11 17 134 0
-11 17 -134 0
11 -17 -134 0
-11 -17 134 0
-19 -21 135 0
19 -21 -135 0
-19 21 -135 0
19 21 135 0
22 23 136 0
-22 23 -136 0
22 -23 -136 0
-22 -23 136 0
-24 25 137 0
24 25 -137 0
-24 -25 -137 0
24 -25 137 0
33 -35 138 0
-33 -35 -138 0
33 35 -138 0
-33 35 138 0
36 37 139 0
-36 37 -139 0
36 -37 -139 0
-36 -37 139 0
-40 44 140 0
40 44 -140 0
-40 -44 -140 0
40 -44 140 0
-45 48 141 0
45 48 -141 0
-45 -48 -141 0
45 -48 141 0
132 -133 142 0
-132 -133 -142 0
132 133 -142 0
-132 133 142 0
134 -135 143 0
-134 -135 -143 0
134 135 -143 0
-134 135 143 0
136 -137 144 0
-136 -137 -144 0
136 137 -144 0
-136 137 144 0
138 -139 145 0
-138 -139 -145 0
138 139 -145 0
-138 139 145 0
140 -141 146 0
-140 -141 -146 0
140 141 -146 0
-140 141 146 0
142 -143 147 0
-142 -143 -147 0
142 143 -147 0
-142 143 147 0
144 -145 148 0
-144 -145 -148 0
144 145 -148 0
-144 145 148 0
-146 -147 148 0
146 -147 -148 0
-146 147 -148 0
146 147 148 0
1 -4 149 0
-1 -4 -149 0
1 4 -149 0
-1 4 149 0
6 9 150 0
-6 9 -150 0
6 -9 -150 0
-6 -9 150 0
-11 12 151 0
11 12 -151 0
-11 -12 -151 0
11 -12 151 0
-15 -17 152 0
15 -17 -152 0
-15 17 -152 0
15 17 152 0
19 20 153 0
-19 20 -153 0
19 -20 -153 0
-19 -20 153 0
21 -22 154 0
-21 -22 -154 0
21 22 -154 0
-21 22 154 0
-24 25 155 0
24 25 -155 0
-24 -25 -155 0
24 -25 155 0
-28 -33 156 0
28 -33 -156 0
-28 33 -156 0
28 33 156 0
39 -40 157 0
-39 -40 -157 0
39 40 -157 0
-39 40 157 0
41 -43 158 0
-41 -43 -158 0
41 43 -158 0
-41 43 158 0
-45 46 159 0
45 46 -159 0
-45 -46 -159 0
45 -46 159 0
-48 -49 160 0
48 -49 -160 0
-48 49 -160 0
48 49 160 0
149 -150 161 0
-149 -150 -161 0
149 150 -161 0
-149 150 161 0
151 -152 162 0
-151 -152 -162 0
151 152 -162 0
-151 152 162 0
153 -154 163 0
-153 -154 -163 0
153 154 -163 0
-153 154 163 0
155 -156 164 0
-155 -156 -164 0
155 156 -164 0
-155 156 164 0
157 -158 165 0
-157 -158 -165 0
157 158 -165 0
-157 158 165 0
159 -160 166 0
-159 -160 -166 0
159 160 -166 0
-159 160 166 0
161 -162 167 0
-161 -162 -167 0
161 162 -167 0
-161 162 167 0
163 -164 168 0
-163 -164 -168 0
163 164 -168 0
-163 164 168 0
165 -166 169 0
-165 -166 -169 0
165 166 -169 0
-165 166 169 0
-167 -168 169 0
167 -168 -169 0
-167 168 -169 0
167 168 169 0
-6 -8 170 0
6 -8 -170 0
-6 8 -170 0
6 8 170 0
-9 -11 171 0
9 -11 -171 0
-9 11 -171 0
9 11 171 0
-18 -19 172 0
18 -19 -172 0
-18 19 -172 0
18 19 172 0
-20 -21 173 0
20 -21 -173 0
-20 21 -173 0
20 21 173 0
22 -25 174 0
-22 -25 -174 0
22 25 -174 0
-22 25 174 0
26 -28 175 0
-26 -28 -175 0
26 28 -175 0
-26 28 175 0
-30 -31 176 0
30 -31 -176 0
-30 31 -176 0
30 31 176 0
-32 35 177 0
32 35 -177 0
-32 -35 -177 0
32 -35 177 0
37 39 178 0
-37 39 -178 0
37 -39 -178 0
-37 -39 178 0
40 -41 179 0
-40 -41 -179 0
40 41 -179 0
-40 41 179 0
-44 -47 180 0
44 -47 -180 0
-44 47 -180 0
44 47 180 0
169 -170 181 0
-169 -170 -181 0
169 170 -181 0
-169 170 181 0
171 -172 182 0
-171 -172 -182 0
171 172 -182 0
-171 172 182 0
173 -174 183 0
-173 -174 -183 0
173 174 -183 0
-173 174 183 0
175 -176 184 0
-175 -176 -184 0
175 176 -184 0
-175 176 184 0
177 -178 185 0
-177 -178 -185 0
177 178 -185 0
-177 178 185 0
179 -180 186 0
-179 -180 -186 0
179 180 -186 0
-179 180 186 0
181 -182 187 0
-181 -182 -187 0
181 182 -187 0
-181 182 187 0
183 -184 188 0
-183 -184 -188 0
183 184 -188 0
-183 184 188 0
185 -186 189 0
-185 -186 -189 0
185 186 -189 0
-185 186 189 0
-187 -188 189 0
187 -188 -189 0
-187 188 -189 0
187 188 189 0
2 -4 190 0
-2 -4 -190 0
2 4 -190 0
-2 4 190 0
5 -8 191 0
-5 -8 -191 0
5 8 -191 0
-5 8 191 0
9 11 192 0
-9 11 -192 0
9 -11 -192 0
-9 -11 192 0
-16 17 193 0
16 17 -193 0
-16 -17 -193 0
16 -17 193 0
18 -19 194 0
-18 -19 -194 0
18 19 -194 0
-18 19 194 0
-21 22 195 0
21 22 -195 0
-21 -22 -195 0
21 -22 195 0
24 27 196 0
-24 27 -196 0
24 -27 -196 0
-24 -27 196 0
28 -31 197 0
-28 -31 -197 0
28 31 -197 0
-28 31 197 0
-34 35 198 0
34 35 -198 0
-34 -35 -198 0
34 -35 198 0
-39 -43 199 0
39 -43 -199 0
-39 43 -199 0
39 43 199 0
45 -46 200 0
-45 -46 -200 0
45 46 -200 0
-45 46 200 0
189 -190 201 0
-189 -190 -201 0
189 190 -201 0
-189 190 201 0
191 -192 202 0
-191 -192 -202 0
191 192 -202 0
-191 192 202 0
193 -194 203 0
-193 -194 -203 0
193 194 -203 0
-193 194 203 0
195 -196 204 0
-195 -196 -204 0
195 196 -204 0
-195 196 204 0
197 -198 205 0
-197 -198 -205 0
197 198 -205 0
-197 198 205 0
199 -200 206 0
-199 -200 -206 0
199 200 -206 0
-199 200 206 0
201 -202 207 0
-201 -202 -207 0
201 202 -207 0
-201 202 207 0
203 -204 208 0
-203 -204 -208 0
203 204 -208 0
-203 204 208 0
205 -206 209 0
-205 -206 -209 0
205 206 -209 0
-205 206 209 0
-207 -208 209 0
207 -208 -209 0
-207 208 -209 0
207 208 209 0
-1 5 210 0
1 5 -210 0
-1 -5 -210 0
1 -5 210 0
-9 11 211 0
9 11 -211 0
-9 -11 -211 0
9 -11 211 0
13 14 212 0
-13 14 -212 0
13 -14 -212 0
-13 -14 212 0
-16 19 213 0
16 19 -213 0
-16 -19 -213 0
16 -19 213 0
-22 24 214 0
22 24 -214 0
-22 -24 -214 0
22 -24 214 0
27 -28 215 0
-27 -28 -215 0
27 28 -215 0
-27 28 215 0
30 31 216 0
-30 31 -216 0
30 -31 -216 0
-30 -31 216 0
-32 -34 217 0
32 -34 -217 0
-32 34 -217 0
32 34 217 0
-35 37 218 0
35 37 -218 0
-35 -37 -218 0
35 -37 218 0
40 -42 219 0
-40 -42 -219 0
40 42 -219 0
-40 42 219 0
43 44 220 0
-43 44 -220 0
43 -44 -220 0
-43 -44 220 0
-46 -48 221 0
46 -48 -221 0
-46 48 -221 0
46 48 221 0
209 -210 222 0
-209 -210 -222 0
209 210 -222 0
-209 210 222 0
211 -212 223 0
-211 -212 -223 0
211 212 -223 0
-211 212 223 0
213 -214 224 0
-213 -214 -224 0
213 214 -224 0
-213 214 224 0
215 -216 225 0
-215 -216 -225 0
215 216 -225 0
-215 216 225 0
217 -218 226 0
-217 -218 -226 0
217 218 -226 0
-217 218 226 0
219 -220 227 0
-219 -220 -227 0
219 220 -227 0
-219 220 227 0
221 -222 228 0
-221 -222 -228 0
221 222 -228 0
-221 222 228 0
223 -224 229 0
-223 -224 -229 0
223 224 -229 0
-223 224 229 0
225 -226 230 0
-225 -226 -230 0
225 226 -230 0
-225 226 230 0
227 -228 231 0
-227 -228 -231 0
227 228 -231 0
-227 228 231 0
229 -230 232 0
-229 -230 -232 0
229 230 -232 0
-229 230 232 0
231 232 0
-231 -232 0
3 -5 233 0
-3 -5 -233 0
3 5 -233 0
-3 5 233 0
-6 7 234 0
6 7 -234 0
-6 -7 -234 0
6 -7 234 0
8 10 235 0
-8 10 -235 0
8 -10 -235 0
-8 -10 235 0
12 -15 236 0
-12 -15 -236 0
12 15 -236 0
-12 15 236 0
17 18 237 0
-17 18 -237 0
17 -18 -237 0
-17 -18 237 0
19 21 238 0
-19 21 -238 0
19 -21 -238 0
-19 -21 238 0
-22 -23 239 0
22 -23 -239 0
-22 23 -239 0
22 23 239 0
24 26 240 0
-24 26 -240 0
24 -26 -240 0
-24 -26 240 0
-27 -28 241 0
27 -28 -241 0
-27 28 -241 0
27 28 241 0
-29 31 242 0
29 31 -242 0
-29 -31 -242 0
29 -31 242 0
34 35 243 0
-34 35 -243 0
34 -35 -243 0
-34 -35 243 0
-37 39 244 0
37 39 -244 0
-37 -39 -244 0
37 -39 244 0
40 -43 245 0
-40 -43 -245 0
40 43 -245 0
-40 43 245 0
232 -233 246 0
-232 -233 -246 0
232 233 -246 0
-232 233 246 0
234 -235 247 0
-234 -235 -247 0
234 235 -247 0
-234 235 247 0
236 -237 248 0
-236 -237 -248 0
236 237 -248 0
-236 237 248 0
238 -239 249 0
-238 -239 -249 0
238 239 -249 0
-238 239 249 0
240 -241 250 0
-240 -241 -250 0
240 241 -250 0
-240 241 250 0
242 -243 251 0
-242 -243 -251 0
242 243 -251 0
-242 243 251 0
244 -245 252 0
-244 -245 -252 0
244 245 -252 0
-244 245 252 0
246 -247 253 0
-246 -247 -253 0
246 247 -253 0
-246 247 253 0
248 -249 254 0
-248 -249 -254 0
248 249 -254 0
-248 249 254 0
250 -251 255 0
-250 -251 -255 0
250 251 -255 0
-250 251 255 0
252 -253 256 0
-252 -253 -256 0
252 253 -256 0
-252 253 256 0
254 -255 257 0
-254 -255 -257 0
254 255 -257 0
-254 255 257 0
256 257 0
-256 -257 0
-1 3 258 0
1 3 -258 0
-1 -3 -258 0
1 -3 258 0
9 -13 259 0
-9 -13 -259 0
9 13 -259 0
-9 13 259 0
16 19 260 0
-16 19 -260 0
16 -19 -260 0
-16 -19 260 0
22 23 261 0
-22 23 -261 0
22 -23 -261 0
-22 -23 261 0
-24 25 262 0
24 25 -262 0
-24 -25 -262 0
24 -25 262 0
-26 27 263 0
26 27 -263 0
-26 -27 -263 0
26 -27 263 0
28 -31 264 0
-28 -31 -264 0
28 31 -264 0
-28 31 264 0
-33 35 265 0
33 35 -265 0
-33 -35 -265 0
33 -35 265 0
36 -42 266 0
-36 -42 -266 0
36 42 -266 0
-36 42 266 0
44 -46 267 0
-44 -46 -267 0
44 46 -267 0
-44 46 267 0
49 -50 268 0
-49 -50 -268 0
49 50 -268 0
-49 50 268 0
258 -259 269 0
-258 -259 -269 0
258 259 -269 0
-258 259 269 0
260 -261 270 0
-260 -261 -270 0
260 261 -270 0
-260 261 270 0
262 -263 271 0
-262 -263 -271 0
262 263 -271 0
-262 263 271 0
264 -265 272 0
-264 -265 -272 0
264 265 -272 0
-264 265 272 0
266 -267 273 0
-266 -267 -273 0
266 267 -273 0
-266 267 273 0
268 -269 274 0
-268 -269 -274 0
268 269 -274 0
-268 269 274 0
270 -271 275 0
-270 -271 -275 0
270 271 -275 0
-270 271 275 0
272 -273 276 0
-272 -273 -276 0
272 273 -276 0
-272 273 276 0
-274 -275 276 0
274 -275 -276 0
-274 275 -276 0
274 275 276 0
-5 8 277 0
5 8 -277 0
-5 -8 -277 0
5 -8 277 0
9 20 278 0
-9 20 -278 0
9 -20 -278 0
-9 -20 278 0
25 -28 279 0
-25 -28 -279 0
25 28 -279 0
-25 28 279 0
29 30 280 0
-29 30 -280 0
29 -30 -280 0
-29 -30 280 0
-31 33 281 0
31 33 -281 0
-31 -33 -281 0
31 -33 281 0
-34 38 282 0
34 38 -282 0
-34 -38 -282 0
34 -38 282 0
39 41 283 0
-39 41 -283 0
39 -41 -283 0
-39 -41 283 0
-42 -45 284 0
42 -45 -284 0
-42 45 -284 0
42 45 284 0
47 -49 285 0
-47 -49 -285 0
47 49 -285 0
-47 49 285 0
277 -278 286 0
-277 -278 -286 0
277 278 -286 0
-277 278 286 0
279 -280 287 0
-279 -280 -287 0
279 280 -287 0
-279 280 287 0
281 -282 288 0
-281 -282 -288 0
281 282 -288 0
-281 282 288 0
283 -284 289 0
-283 -284 -289 0
283 284 -289 0
-283 284 289 0
285 -286 290 0
-285 -286 -290 0
285 286 -290 0
-285 286 290 0
287 -288 291 0
-287 -288 -291 0
287 288 -291 0
-287 288 291 0
-289 -290 291 0
289 -290 -291 0
-289 290 -291 0
289 290 291 0
2 -4 292 0
-2 -4 -292 0
2 4 -292 0
-2 4 292 0
-5 -6 293 0
5 -6 -293 0
-5 6 -293 0
5 6 293 0
7 -8 294 0
-7 -8 -294 0
7 8 -294 0
-7 8 294 0
-9 -12 295 0
9 -12 -295 0
-9 12 -295 0
9 12 295 0
14 16 296 0
-14 16 -296 0
14 -16 -296 0
-14 -16 296 0
-19 -20 297 0
19 -20 -297 0
-19 20 -297 0
19 20 297 0
21 -25 298 0
-21 -25 -298 0
21 25 -298 0
-21 25 298 0
-26 -28 299 0
26 -28 -299 0
-26 28 -299 0
26 28 299 0
31 -32 300 0
-31 -32 -300 0
31 32 -300 0
-31 32 300 0
34 -36 301 0
-34 -36 -301 0
34 36 -301 0
-34 36 301 0
37 39 302 0
-37 39 -302 0
37 -39 -302 0
-37 -39 302 0
-40 -45 303 0
40 -45 -303 0
-40 45 -303 0
40 45 303 0
46 49 304 0
-46 49 -304 0
46 -49 -304 0
-46 -49 304 0
292 -293 305 0
-292 -293 -305 0
292 293 -305 0
-292 293 305 0
294 -295 306 0
-294 -295 -306 0
294 295 -306 0
-294 295 306 0
296 -297 307 0
-296 -297 -307 0
296 297 -307 0
-296 297 307 0
298 -299 308 0
-298 -299 -308 0
298 299 -308 0
-298 299 308 0
300 -301 309 0
-300 -301 -309 0
300 301 -309 0
-300 301 309 0
302 -303 310 0
-302 -303 -310 0
302 303 -310 0
-302 303 310 0
304 -305 311 0
-304 -305 -311 0
304 305 -311 0
-304 305 311 0
306 -307 312 0
-306 -307 -312 0
306 307 -312 0
-306 307 312 0
308 -309 313 0
-308 -309 -313 0
308 309 -313 0
-308 309 313 0
310 -311 314 0
-310 -311 -314 0
310 311 -314 0
-310 311 314 0
312 -313 315 0
-312 -313 -315 0
312 313 -315 0
-312 313 315 0
314 315 0
-314 -315 0
1 2 316 0
-1 2 -316 0
1 -2 -316 0
-1 -2 316 0
-5 7 317 0
5 7 -317 0
-5 -7 -317 0
5 -7 317 0
8 -9 318 0
-8 -9 -318 0
8 9 -318 0
-8 9 318 0
-13 15 319 0
13 15 -319 0
-13 -15 -319 0
13 -15 319 0
16 -18 320 0
-16 -18 -320 0
16 18 -320 0
-16 18 320 0
-22 -23 321 0
22 -23 -321 0
-22 23 -321 0
22 23 321 0
25 -26 322 0
-25 -26 -322 0
25 26 -322 0
-25 26 322 0
-27 30 323 0
27 30 -323 0
-27 -30 -323 0
27 -30 323 0
34 -35 324 0
-34 -35 -324 0
34 35 -324 0
-34 35 324 0
-37 38 325 0
37 38 -325 0
-37 -38 -325 0
37 -38 325 0
-40 -41 326 0
40 -41 -326 0
-40 41 -326 0
40 41 326 0
-42 -43 327 0
42 -43 -327 0
-42 43 -327 0
42 43 327 0
44 46 328 0
-44 46 -328 0
44 -46 -328 0
-44 -46 328 0
-48 50 329 0
48 50 -329 0
-48 -50 -329 0
48 -50 329 0
316 -317 330 0
-316 -317 -330 0
316 317 -330 0
-316 317 330 0
318 -319 331 0
-318 -319 -331 0
318 319 -331 0
-318 319 331 0
320 -321 332 0
-320 -321 -332 0
320 321 -332 0
-320 321 332 0
322 -323 333 0
-322 -323 -333 0
322 323 -333 0
-322 323 333 0
324 -325 334 0
-324 -325 -334 0
324 325 -334 0
-324 325 334 0
326 -327 335 0
-326 -327 -335 0
326 327 -335 0
-326 327 335 0
328 -329 336 0
-328 -329 -336 0
328 329 -336 0
-328 329 336 0
330 -331 337 0
-330 -331 -337 0
330 331 -337 0
-330 331 337 0
332 -333 338 0
-332 -333 -338 0
332 333 -338 0
-332 333 338 0
334 -335 339 0
-334 -335 -339 0
334 335 -339 0
-334 335 339 0
336 -337 340 0
-336 -337 -340 0
336 337 -340 0
-336 337 340 0
338 -339 341 0
-338 -339 -341 0
338 339 -341 0
-338 339 341 0
340 341 0
-340 -341 0
-1 -2 342 0
1 -2 -342 0
-1 2 -342 0
1 2 342 0
3 -4 343 0
-3 -4 -343 0
3 4 -343 0
-3 4 343 0
7 8 344 0
-7 8 -344 0
7 -8 -344 0
-7 -8 344 0
9 -10 345 0
-9 -10 -345 0
9 10 -345 0
-9 10 345 0
-15 -16 346 0
15 -16 -346 0
-15 16 -346 0
15 16 346 0
17 20 347 0
-17 20 -347 0
17 -20 -347 0
-17 -20 347 0
-21 -22 348 0
21 -22 -348 0
-21 22 -348 0
21 22 348 0
-25 26 349 0
25 26 -349 0
-25 -26 -349 0
25 -26 349 0
-27 28 350 0
27 28 -350 0
-27 -28 -350 0
27 -28 350 0
-29 -31 351 0
29 -31 -351 0
-29 31 -351 0
29 31 351 0
-32 -35 352 0
32 -35 -352 0
-32 35 -352 0
32 35 352 0
38 41 353 0
-38 41 -353 0
38 -41 -353 0
-38 -41 353 0
-43 -44 354 0
43 -44 -354 0
-43 44 -354 0
43 44 354 0
45 48 355 0
-45 48 -355 0
45 -48 -355 0
-45 -48 355 0
341 -342 356 0
-341 -342 -356 0
341 342 -356 0
-341 342 356 0
343 -344 357 0
-343 -344 -357 0
343 344 -357 0
-343 344 357 0
345 -346 358 0
-345 -346 -358 0
345 346 -358 0
-345 346 358 0
347 -348 359 0
-347 -348 -359 0
347 348 -359 0
-347 348 359 0
349 -350 360 0
-349 -350 -360 0
349 350 -360 0
-349 350 360 0
351 -352 361 0
-351 -352 -361 0
351 352 -361 0
-351 352 361 0
353 -354 362 0
-353 -354 -362 0
353 354 -362 0
-353 354 362 0
355 -356 363 0
-355 -356 -363 0
355 356 -363 0
-355 356 363 0
357 -358 364 0
-357 -358 -364 0
357 358 -364 0
-357 358 364 0
359 -360 365 0
-359 -360 -365 0
359 360 -365 0
-359 360 365 0
361 -362 366 0
-361 -362 -366 0
361 362 -366 0
-361 362 366 0
363 -364 367 0
-363 -364 -367 0
363 364 -367 0
-363 364 367 0
365 -366 368 0
-365 -366 -368 0
365 366 -368 0
-365 366 368 0
367 368 0
-367 -368 0
-12 369 0
-24 369 0
-12 -24 370 0
-23 369 0
-12 -23 370 0
-24 -23 370 0
-12 -24 -23 371 0
-22 372 0
-21 372 0
-22 -21 373 0
-20 372 0
-22 -20 373 0
-21 -20 373 0
-22 -21 -20 374 0
-369 375 0
-370 376 0
-371 377 0
-372 375 0
-373 376 0
-374 377 0
-369 -372 376 0
-369 -373 377 0
-369 -374 378 0
-370 -372 377 0
-370 -373 378 0
-370 -374 379 0
-371 -372 378 0
-371 -373 379 0
-371 -374 380 0
-19 381 0
-18 381 0
-19 -18 382 0
-17 381 0
-19 -17 382 0
-18 -17 382 0
-19 -18 -17 383 0
-16 384 0
-15 384 0
-16 -15 385 0
-14 384 0
-16 -14 385 0
-15 -14 385 0
-16 -15 -14 386 0
-381 387 0
-382 388 0
-383 389 0
-384 387 0
-385 388 0
-386 389 0
-381 -384 388 0
-381 -385 389 0
-381 -386 390 0
-382 -384 389 0
-382 -385 390 0
-382 -386 391 0
-383 -384 390 0
-383 -385 391 0
-383 -386 392 0
-13 393 0
-25 393 0
-13 -25 394 0
-11 393 0
-13 -11 394 0
-25 -11 394 0
-13 -25 -11 395 0
-10 396 0
-9 396 0
-10 -9 397 0
-8 396 0
-10 -8 397 0
-9 -8 397 0
-10 -9 -8 398 0
-393 399 0
-394 400 0
-395 401 0
-396 399 0
-397 400 0
-398 401 0
-393 -396 400 0
-393 -397 401 0
-393 -398 402 0
-394 -396 401 0
-394 -397 402 0
-394 -398 403 0
-395 -396 402 0
-395 -397 403 0
-395 -398 404 0
-7 405 0
-6 405 0
-7 -6 406 0
-5 405 0
-7 -5 406 0
-6 -5 406 0
-7 -6 -5 407 0
-4 408 0
-3 408 0
-4 -3 409 0
-2 410 0
-1 410 0
-2 -1 411 0
-37 410 0
-2 -37 411 0
-1 -37 411 0
-2 -1 -37 412 0
-408 413 0
-409 414 0
-410 413 0
-411 414 0
-412 415 0
-408 -410 414 0
-408 -411 415 0
-408 -412 416 0
-409 -410 415 0
-409 -411 416 0
-409 -412 417 0
-405 418 0
-406 419 0
-407 420 0
-413 418 0
-414 419 0
-415 420 0
-416 421 0
-417 422 0
-405 -413 419 0
-405 -414 420 0
-405 -415 421 0
-405 -416 422 0
-405 -417 423 0
-406 -413 420 0
-406 -414 421 0
-406 -415 422 0
-406 -416 423 0
-406 -417 424 0
-407 -413 421 0
-407 -414 422 0
-407 -415 423 0
-407 -416 424 0
-407 -417 425 0
-49 426 0
-48 426 0
-49 -48 427 0
-47 426 0
-49 -47 427 0
-48 -47 427 0
-49 -48 -47 428 0
-46 429 0
-45 429 0
-46 -45 430 0
-44 431 0
-43 431 0
-44 -43 432 0
-42 431 0
-44 -42 432 0
-43 -42 432 0
-44 -43 -42 433 0
-429 434 0
-430 435 0
-431 434 0
-432 435 0
-433 436 0
-429 -431 435 0
-429 -432 436 0
-429 -433 437 0
-430 -431 436 0
-430 -432 437 0
-430 -433 438 0
-426 439 0
-427 440 0
-428 441 0
-434 439 0
-435 440 0
-436 441 0
-437 442 0
-438 443 0
-426 -434 440 0
-426 -435 441 0
-426 -436 442 0
-426 -437 443 0
-426 -438 444 0
-427 -434 441 0
-427 -435 442 0
-427 -436 443 0
-427 -437 444 0
-427 -438 445 0
-428 -434 442 0
-428 -435 443 0
-428 -436 444 0
-428 -437 445 0
-428 -438 446 0
-41 447 0
-40 447 0
-41 -40 448 0
-39 447 0
-41 -39 448 0
-40 -39 448 0
-41 -40 -39 449 0
-38 450 0
-50 450 0
-38 -50 451 0
-36 452 0
-35 452 0
-36 -35 453 0
-34 452 0
-36 -34 453 0
-35 -34 453 0
-36 -35 -34 454 0
-450 455 0
-451 456 0
-452 455 0
-453 456 0
-454 457 0
-450 -452 456 0
-450 -453 457 0
-450 -454 458 0
-451 -452 457 0
-451 -453 458 0
-451 -454 459 0
-447 460 0
-448 461 0
-449 462 0
-455 460 0
-456 461 0
-457 462 0
-458 463 0
-459 464 0
-447 -455 461 0
-447 -456 462 0
-447 -457 463 0
-447 -458 464 0
-447 -459 465 0
-448 -455 462 0
-448 -456 463 0
-448 -457 464 0
-448 -458 465 0
-448 -459 466 0
-449 -455 463 0
-449 -456 464 0
-449 -457 465 0
-449 -458 466 0
-449 -459 467 0
-33 468 0
-32 468 0
-33 -32 469 0
-31 468 0
-33 -31 469 0
-32 -31 469 0
-33 -32 -31 470 0
-30 471 0
-29 471 0
-30 -29 472 0
-28 473 0
-27 473 0
-28 -27 474 0
-26 473 0
-28 -26 474 0
-27 -26 474 0
-28 -27 -26 475 0
-471 476 0
-472 477 0
-473 476 0
-474 477 0
-475 478 0
-471 -473 477 0
-471 -474 478 0
-471 -475 479 0
-472 -473 478 0
-472 -474 479 0
-472 -475 480 0
-468 481 0
-469 482 0
-470 483 0
-476 481 0
-477 482 0
-478 483 0
-479 484 0
-480 485 0
-468 -476 482 0
-468 -477 483 0
-468 -478 484 0
-468 -479 485 0
-468 -480 486 0
-469 -476 483 0
-469 -477 484 0
-469 -478 485 0
-469 -479 486 0
-469 -480 487 0
-470 -476 484 0
-470 -477 485 0
-470 -478 486 0
-470 -479 487 0
-470 -480 488 0
-460 489 0
-462 490 0
-464 491 0
-466 492 0
-481 489 0
-483 490 0
-485 491 0
-487 492 0
-460 -481 490 0
-460 -483 491 0
-460 -485 492 0
-460 -487 493 0
-462 -481 491 0
-462 -483 492 0
-462 -485 493 0
-462 -487 494 0
-464 -481 492 0
-464 -483 493 0
-464 -485 494 0
-466 -481 493 0
-466 -483 494 0
-461 495 0
-465 496 0
-482 495 0
-486 496 0
-461 -482 496 0
-461 -486 497 0
-465 -482 497 0
-463 498 0
-467 499 0
-484 498 0
-488 499 0
-463 -484 499 0
-496 500 0
-498 500 0
-496 -498 501 0
-497 502 0
-499 502 0
-497 -499 503 0
-490 504 0
-495 504 0
-490 -495 505 0
-491 506 0
-500 506 0
-491 -500 507 0
-492 508 0
-501 508 0
-492 -501 509 0
-493 510 0
-502 510 0
-493 -502 511 0
-494 512 0
-503 512 0
-494 -503 513 0
-439 514 0
-441 515 0
-443 516 0
-445 517 0
-489 514 0
-505 515 0
-507 516 0
-509 517 0
-511 518 0
-513 519 0
-439 -489 515 0
-439 -505 516 0
-439 -507 517 0
-439 -509 518 0
-439 -511 519 0
-441 -489 516 0
-441 -505 517 0
-441 -507 518 0
-441 -509 519 0
-443 -489 517 0
-443 -505 518 0
-443 -507 519 0
-445 -489 518 0
-445 -505 519 0
-440 520 0
-444 521 0
-504 520 0
-508 521 0
-512 522 0
-440 -504 521 0
-440 -508 522 0
-444 -504 522 0
-442 523 0
-446 524 0
-506 523 0
-510 524 0
-442 -506 524 0
-521 525 0
-523 525 0
-521 -523 526 0
-522 527 0
-524 527 0
-522 -524 528 0
-515 529 0
-520 529 0
-515 -520 530 0
-516 531 0
-525 531 0
-516 -525 532 0
-517 533 0
-526 533 0
-517 -526 534 0
-518 535 0
-527 535 0
-518 -527 536 0
-519 537 0
-528 537 0
-519 -528 538 0
-418 539 0
-420 540 0
-422 541 0
-424 542 0
-514 539 0
-530 540 0
-532 541 0
-534 542 0
-536 543 0
-538 544 0
-418 -514 540 0
-418 -530 541 0
-418 -532 542 0
-418 -534 543 0
-418 -536 544 0
-420 -514 541 0
-420 -530 542 0
-420 -532 543 0
-420 -534 544 0
-422 -514 542 0
-422 -530 543 0
-422 -532 544 0
-424 -514 543 0
-424 -530 544 0
-419 545 0
-423 546 0
-529 545 0
-533 546 0
-537 547 0
-419 -529 546 0
-419 -533 547 0
-423 -529 547 0
-421 548 0
-425 549 0
-531 548 0
-535 549 0
-421 -531 549 0
-546 550 0
-548 550 0
-546 -548 551 0
-547 552 0
-549 552 0
-547 -549 553 0
-540 554 0
-545 554 0
-540 -545 555 0
-541 556 0
-550 556 0
-541 -550 557 0
-542 558 0
-551 558 0
-542 -551 559 0
-543 560 0
-552 560 0
-543 -552 561 0
-544 562 0
-553 562 0
-544 -553 563 0
-399 564 0
-401 565 0
-403 566 0
-539 564 0
-555 565 0
-557 566 0
-559 567 0
-561 568 0
-563 569 0
-399 -539 565 0
-399 -555 566 0
-399 -557 567 0
-399 -559 568 0
-399 -561 569 0
-401 -539 566 0
-401 -555 567 0
-401 -557 568 0
-401 -559 569 0
-403 -539 567 0
-403 -555 568 0
-403 -557 569 0
-400 570 0
-402 571 0
-404 572 0
-554 570 0
-556 571 0
-558 572 0
-560 573 0
-562 574 0
-400 -554 571 0
-400 -556 572 0
-400 -558 573 0
-400 -560 574 0
-402 -554 572 0
-402 -556 573 0
-402 -558 574 0
-404 -554 573 0
-404 -556 574 0
-565 575 0
-570 575 0
-565 -570 576 0
-566 577 0
-571 577 0
-566 -571 578 0
-567 579 0
-572 579 0
-567 -572 580 0
-568 581 0
-573 581 0
-568 -573 582 0
-569 583 0
-574 583 0
-569 -574 584 0
-387 585 0
-389 586 0
-391 587 0
-564 585 0
-576 586 0
-578 587 0
-580 588 0
-582 589 0
-584 590 0
-387 -564 586 0
-387 -576 587 0
-387 -578 588 0
-387 -580 589 0
-387 -582 590 0
-389 -564 587 0
-389 -576 588 0
-389 -578 589 0
-389 -580 590 0
-391 -564 588 0
-391 -576 589 0
-391 -578 590 0
-388 591 0
-390 592 0
-392 593 0
-575 591 0
-577 592 0
-579 593 0
-581 594 0
-583 595 0
-388 -575 592 0
-388 -577 593 0
-388 -579 594 0
-388 -581 595 0
-390 -575 593 0
-390 -577 594 0
-390 -579 595 0
-392 -575 594 0
-392 -577 595 0
-586 596 0
-591 596 0
-586 -591 597 0
-587 598 0
-592 598 0
-587 -592 599 0
-588 600 0
-593 600 0
-588 -593 601 0
-589 602 0
-594 602 0
-589 -594 603 0
-590 604 0
-595 604 0
-590 -595 605 0
-375 606 0
-377 607 0
-379 608 0
-585 606 0
-597 607 0
-599 608 0
-601 609 0
-603 610 0
-605 611 0
-375 -585 607 0
-375 -597 608 0
-375 -599 609 0
-375 -601 610 0
-375 -603 611 0
-377 -585 608 0
-377 -597 609 0
-377 -599 610 0
-377 -601 611 0
-379 -585 609 0
-379 -597 610 0
-379 -599 611 0
-376 612 0
-378 613 0
-380 614 0
-596 612 0
-598 613 0
-600 614 0
-602 615 0
-604 616 0
-376 -596 613 0
-376 -598 614 0
-376 -600 615 0
-376 -602 616 0
-378 -596 614 0
-378 -598 615 0
-378 -600 616 0
-380 -596 615 0
-380 -598 616 0
-607 617 0
-612 617 0
-607 -612 618 0
-608 619 0
-613 619 0
-608 -613 620 0
-609 621 0
-614 621 0
-609 -614 622 0
-610 623 0
-615 623 0
-610 -615 624 0
-611 625 0
-616 625 0
-611 -616 626 0
-626 0
